100
24 18
28 94
2 53
1 21
2 24
2 4
29 86
9 45
22 71
1 99
26 16
5 11
17 10
19 81
26 64
24 0
14 31
14 44
17 18
22 38
4 92
8 27
12 15
17 30
19 14
23 90
11 27
8 28
9 80
6 27
29 38
19 30
6 73
14 5
25 44
28 86
15 89
25 66
16 37
24 92
14 26
13 87
7 88
8 43
2 28
28 65
7 1
7 87
5 74
0 71
19 40
22 58
26 75
2 87
21 73
11 68
27 65
23 56
0 74
5 74
9 22
4 73
13 38
14 3
24 10
10 34
4 83
18 32
11 21
6 23
23 2
0 49
25 51
17 25
9 57
20 32
18 90
19 56
19 23
3 93
10 85
18 35
8 76
29 79
4 91
6 47
6 97
18 66
21 54
11 78
20 91
3 91
9 20
23 62
18 10
25 28
24 40
26 16
5 84
5 66
